(declare-fun var0 () String)
(assert (str.in.re var0 (re.++ (re.+ (re.* (str.to.re "-"))) (re.++ (re.union (re.union (str.to.re ")))") (str.to.re "*")) (re.union (str.to.re "+") (str.to.re ","))) (re.++ (re.+ (re.+ (str.to.re "((("))) (re.++ (re.* (re.union (str.to.re "&&") (str.to.re "''"))) (re.++ (re.+ (re.+ (str.to.re "%"))) (re.++ (re.union (re.union (str.to.re """""") (str.to.re "##")) (re.+ (str.to.re "$$"))) (re.++ (re.+ (re.* (str.to.re "!!!"))) (re.++ (re.union (re.+ (str.to.re "XXX")) (re.union (str.to.re "YY") (str.to.re "ZZ"))) (re.++ (re.+ (re.+ (str.to.re "WW"))) (re.++ (re.union (re.union (str.to.re "TTT") (str.to.re "U")) (re.* (str.to.re "VVV"))) (re.++ (re.union (re.* (str.to.re "Q")) (re.union (str.to.re "RR") (str.to.re "SSS"))) (re.++ (re.* (re.union (str.to.re "OOO") (str.to.re "P"))) (re.++ (re.+ (re.union (str.to.re "MMM") (str.to.re "NN"))) (re.++ (re.* (re.* (str.to.re "L"))) (re.++ (re.* (re.* (str.to.re "K"))) (re.++ (re.union (re.union (str.to.re "HH") (str.to.re "II")) (re.+ (str.to.re "J"))) (re.++ (re.+ (re.* (str.to.re "GGG"))) (re.++ (re.* (re.union (str.to.re "E") (str.to.re "F"))) (re.++ (re.union (re.* (str.to.re "BBB")) (re.union (str.to.re "C") (str.to.re "D"))) (re.++ (re.union (re.+ (str.to.re "z")) (re.* (str.to.re "AA"))) (re.++ (re.+ (re.+ (str.to.re "yy"))) (re.++ (re.union (re.union (str.to.re "v") (str.to.re "w")) (re.+ (str.to.re "xx"))) (re.++ (re.union (re.+ (str.to.re "ss")) (re.union (str.to.re "tt") (str.to.re "uuu"))) (re.++ (re.* (re.* (str.to.re "rrr"))) (re.++ (re.* (re.+ (str.to.re "q"))) (re.++ (re.union (re.union (str.to.re "nn") (str.to.re "o")) (re.* (str.to.re "ppp"))) (re.++ (re.union (re.union (str.to.re "k") (str.to.re "l")) (re.* (str.to.re "mm"))) (re.++ (re.+ (re.* (str.to.re "jj"))) (re.++ (re.+ (re.+ (str.to.re "iii"))) (re.++ (re.* (re.+ (str.to.re "h"))) (re.++ (re.* (re.* (str.to.re "ggg"))) (re.++ (re.+ (re.+ (str.to.re "fff"))) (re.++ (re.union (re.* (str.to.re "c")) (re.union (str.to.re "ddd") (str.to.re "eee"))) (re.++ (re.union (re.* (str.to.re "a")) (re.+ (str.to.re "b"))) (re.++ (re.union (re.union (str.to.re "7") (str.to.re "8")) (re.* (str.to.re "999"))) (re.++ (re.* (re.+ (str.to.re "6"))) (re.++ (re.+ (re.* (str.to.re "5"))) (re.++ (re.+ (re.union (str.to.re "3") (str.to.re "4"))) (re.++ (re.* (re.* (str.to.re "222"))) (re.++ (re.* (re.* (str.to.re "1"))) (re.++ (re.union (re.+ (str.to.re "~")) (re.+ (str.to.re "0"))) (re.++ (re.+ (re.* (str.to.re "}"))) (re.++ (re.+ (re.* (str.to.re "|||"))) (re.++ (re.* (re.union (str.to.re "`") (str.to.re "{{{"))) (re.++ (re.union (re.* (str.to.re "]]")) (re.union (str.to.re "^^^") (str.to.re "___"))) (re.++ (re.union (re.+ (str.to.re "[")) (re.+ (str.to.re "\\\\\\"))) (re.++ (re.union (re.* (str.to.re ">")) (re.union (str.to.re "???") (str.to.re "@@"))) (re.++ (re.* (re.union (str.to.re "<<") (str.to.re "==="))) (re.++ (re.union (re.* (str.to.re ":::")) (re.* (str.to.re ";"))) (re.++ (re.+ (re.* (str.to.re "/"))) (re.++ (re.union (re.* (str.to.re ",,")) (re.union (str.to.re "---") (str.to.re "."))) (re.++ (re.+ (re.+ (str.to.re "++"))) (re.++ (re.* (re.union (str.to.re "))") (str.to.re "***"))) (re.++ (re.+ (re.union (str.to.re "''") (str.to.re "(("))) (re.++ (re.+ (re.* (str.to.re "&&"))) (re.++ (re.+ (re.union (str.to.re "$") (str.to.re "%%"))) (re.++ (re.union (re.+ (str.to.re """")) (re.+ (str.to.re "#"))) (re.++ (re.union (re.+ (str.to.re "Z")) (re.* (str.to.re "!!"))) (re.++ (re.+ (re.union (str.to.re "X") (str.to.re "YY"))) (re.++ (re.* (re.union (str.to.re "VV") (str.to.re "W"))) (re.++ (re.union (re.* (str.to.re "SSS")) (re.union (str.to.re "TTT") (str.to.re "UU"))) (re.++ (re.* (re.union (str.to.re "Q") (str.to.re "R"))) (re.++ (re.* (re.+ (str.to.re "PP"))) (re.++ (re.+ (re.* (str.to.re "O"))) (re.++ (re.* (re.union (str.to.re "MM") (str.to.re "N"))) (re.++ (re.+ (re.* (str.to.re "LLL"))) (re.++ (re.* (re.* (str.to.re "KK"))) (re.++ (re.+ (re.+ (str.to.re "J"))) (re.++ (re.+ (re.* (str.to.re "III"))) (re.++ (re.+ (re.union (str.to.re "GG") (str.to.re "HH"))) (re.++ (re.+ (re.* (str.to.re "FF"))) (re.++ (re.+ (re.* (str.to.re "E"))) (re.++ (re.* (re.* (str.to.re "D"))) (re.++ (re.* (re.* (str.to.re "CCC"))) (re.++ (re.union (re.+ (str.to.re "zzz")) (re.union (str.to.re "A") (str.to.re "BBB"))) (re.++ (re.* (re.union (str.to.re "xxx") (str.to.re "y"))) (re.++ (re.+ (re.union (str.to.re "v") (str.to.re "www"))) (re.++ (re.* (re.* (str.to.re "uu"))) (re.++ (re.* (re.+ (str.to.re "ttt"))) (re.++ (re.* (re.* (str.to.re "s"))) (re.++ (re.+ (re.* (str.to.re "rr"))) (re.++ (re.* (re.+ (str.to.re "qq"))) (re.++ (re.+ (re.union (str.to.re "oo") (str.to.re "pp"))) (re.++ (re.union (re.* (str.to.re "mm")) (re.* (str.to.re "nn"))) (re.++ (re.+ (re.* (str.to.re "lll"))) (re.++ (re.union (re.union (str.to.re "ii") (str.to.re "j")) (re.* (str.to.re "kkk"))) (re.++ (re.union (re.+ (str.to.re "gg")) (re.* (str.to.re "hh"))) (re.++ (re.union (re.+ (str.to.re "e")) (re.* (str.to.re "ff"))) (re.++ (re.* (re.union (str.to.re "c") (str.to.re "ddd"))) (re.++ (re.union (re.+ (str.to.re "aaa")) (re.+ (str.to.re "b"))) (re.++ (re.union (re.+ (str.to.re "88")) (re.* (str.to.re "99"))) (re.++ (re.* (re.+ (str.to.re "7"))) (re.++ (re.union (re.+ (str.to.re "44")) (re.union (str.to.re "5") (str.to.re "6"))) (re.++ (re.* (re.union (str.to.re "222") (str.to.re "3"))) (re.++ (re.union (re.union (str.to.re "~~") (str.to.re "0")) (re.+ (str.to.re "1"))) (re.++ (re.* (re.+ (str.to.re "}}"))) (re.++ (re.+ (re.+ (str.to.re "||"))) (re.++ (re.+ (re.* (str.to.re "{{{"))) (re.++ (re.+ (re.* (str.to.re "``"))) (re.++ (re.* (re.+ (str.to.re "__"))) (re.++ (re.* (re.* (str.to.re "^^^"))) (re.++ (re.* (re.+ (str.to.re "]]"))) (re.++ (re.* (re.* (str.to.re "\\\\"))) (re.++ (re.* (re.union (str.to.re "@@@") (str.to.re "[["))) (re.++ (re.+ (re.+ (str.to.re "?"))) (re.++ (re.union (re.* (str.to.re "=")) (re.+ (str.to.re ">>>"))) (re.++ (re.* (re.* (str.to.re "<<"))) (re.++ (re.+ (re.* (str.to.re ";"))) (re.++ (re.+ (re.union (str.to.re "///") (str.to.re ":"))) (re.++ (re.union (re.union (str.to.re ",,") (str.to.re "-")) (re.* (str.to.re "."))) (re.++ (re.+ (re.+ (str.to.re "+"))) (re.++ (re.* (re.+ (str.to.re "***"))) (re.++ (re.union (re.union (str.to.re "''") (str.to.re "(")) (re.+ (str.to.re "))"))) (re.++ (re.union (re.union (str.to.re "$") (str.to.re "%")) (re.+ (str.to.re "&&&"))) (re.++ (re.+ (re.union (str.to.re """""""") (str.to.re "###"))) (re.++ (re.union (re.union (str.to.re "XXX") (str.to.re "YYY")) (re.union (str.to.re "ZZZ") (str.to.re "!"))) (re.++ (re.+ (re.* (str.to.re "W"))) (re.++ (re.union (re.union (str.to.re "TT") (str.to.re "UU")) (re.* (str.to.re "VV"))) (re.++ (re.+ (re.union (str.to.re "R") (str.to.re "SSS"))) (re.++ (re.+ (re.union (str.to.re "PPP") (str.to.re "Q"))) (re.++ (re.+ (re.+ (str.to.re "OO"))) (re.++ (re.union (re.* (str.to.re "MM")) (re.+ (str.to.re "NN"))) (re.++ (re.+ (re.* (str.to.re "LLL"))) (re.++ (re.+ (re.* (str.to.re "KK"))) (re.++ (re.union (re.union (str.to.re "HHH") (str.to.re "II")) (re.+ (str.to.re "JJJ"))) (re.++ (re.union (re.union (str.to.re "DDD") (str.to.re "EEE")) (re.union (str.to.re "F") (str.to.re "GG"))) (re.++ (re.* (re.* (str.to.re "CC"))) (re.++ (re.union (re.* (str.to.re "z")) (re.union (str.to.re "AAA") (str.to.re "BB"))) (re.++ (re.* (re.+ (str.to.re "y"))) (re.++ (re.* (re.* (str.to.re "xx"))) (re.++ (re.* (re.* (str.to.re "w"))) (re.++ (re.+ (re.+ (str.to.re "vvv"))) (re.++ (re.union (re.+ (str.to.re "t")) (re.* (str.to.re "uu"))) (re.++ (re.+ (re.+ (str.to.re "sss"))) (re.++ (re.* (re.union (str.to.re "qqq") (str.to.re "r"))) (re.++ (re.union (re.+ (str.to.re "n")) (re.union (str.to.re "oo") (str.to.re "p"))) (re.++ (re.* (re.union (str.to.re "lll") (str.to.re "mm"))) (re.++ (re.union (re.union (str.to.re "h") (str.to.re "i")) (re.union (str.to.re "j") (str.to.re "kk"))) (re.++ (re.+ (re.* (str.to.re "g"))) (re.++ (re.union (re.+ (str.to.re "ee")) (re.+ (str.to.re "f"))) (re.++ (re.* (re.* (str.to.re "d"))) (re.++ (re.* (re.* (str.to.re "ccc"))) (re.++ (re.* (re.* (str.to.re "bbb"))) (re.++ (re.union (re.+ (str.to.re "888")) (re.union (str.to.re "99") (str.to.re "aa"))) (re.++ (re.+ (re.+ (str.to.re "77"))) (re.++ (re.union (re.union (str.to.re "3") (str.to.re "44")) (re.union (str.to.re "5") (str.to.re "666"))) (re.++ (re.union (re.* (str.to.re "1")) (re.* (str.to.re "22"))) (re.* (re.+ (str.to.re "000"))))))))))))))))))))))))))))))))))))))))))))))))))))))))))))))))))))))))))))))))))))))))))))))))))))))))))))))))))))))))))))))))))))))))))))))))))))))))
(check-sat)